c title
c
p cnf 24 114
c contraintes de types C1
-2 -4 0
-2 -3 0
-2 -7 0
-4 -3 0
-4 -7 0
-3 -7 0
-4 -2 0
-4 -6 0
-4 -8 0
-2 -6 0
-2 -8 0
-6 -8 0
-7 -3 0
-7 -8 0
-7 -6 0
-3 -8 0
-3 -6 0
-8 -6 0
-11 -13 0
-11 -12 0
-11 -16 0
-13 -12 0
-13 -16 0
-12 -16 0
-13 -11 0
-13 -15 0
-13 -17 0
-11 -15 0
-11 -17 0
-15 -17 0
-16 -12 0
-16 -17 0
-16 -15 0
-12 -17 0
-12 -15 0
-17 -15 0
-20 -22 0
-20 -21 0
-20 -25 0
-22 -21 0
-22 -25 0
-21 -25 0
-22 -20 0
-22 -24 0
-22 -26 0
-20 -24 0
-20 -26 0
-24 -26 0
-25 -21 0
-25 -26 0
-25 -24 0
-21 -26 0
-21 -24 0
-26 -24 0
-29 -31 0
-29 -30 0
-29 -34 0
-31 -30 0
-31 -34 0
-30 -34 0
-31 -29 0
-31 -33 0
-31 -35 0
-29 -33 0
-29 -35 0
-33 -35 0
-34 -30 0
-34 -35 0
-34 -33 0
-30 -35 0
-30 -33 0
-35 -33 0
c contraintes de types C2
2 11 20 29 0
-2 -11 0
-2 -20 0
-2 -29 0
-11 -20 0
-11 -29 0
-20 -29 0
4 13 22 31 0
-4 -13 0
-4 -22 0
-4 -31 0
-13 -22 0
-13 -31 0
-22 -31 0
3 12 21 30 0
-3 -12 0
-3 -21 0
-3 -30 0
-12 -21 0
-12 -30 0
-21 -30 0
7 16 25 34 0
-7 -16 0
-7 -25 0
-7 -34 0
-16 -25 0
-16 -34 0
-25 -34 0
6 15 24 33 0
-6 -15 0
-6 -24 0
-6 -33 0
-15 -24 0
-15 -33 0
-24 -33 0
8 17 26 35 0
-8 -17 0
-8 -26 0
-8 -35 0
-17 -26 0
-17 -35 0
-26 -35 0
